121 122 123 71 72 65 66 67 68 70 69 124 125 126 127 128 129 130 131 132 133 137 138 139 140 141 151 150 149 152 148 147 142 143 144 146 145 136 135 134 158 157 153 156 159 155 160 161 113 112 114 115 116 117 106 105 104 103 547 546 545 544 543 541 542 107 110 111 109 108 173 174 175 172 170 171 169 168 162 163 167 166 164 154 165 203 204 202 201 200 199 198 205 206 207 208 209 210 211 212 213 214 215 216 217 223 224 222 221 220 218 219 193 194 195 196 197 184 183 185 186 188 187 182 181 180 179 178 177 176 540 538 539 537 536 484 485 483 481 482 475 476 480 479 477 478 548 549 564 562 563 565 566 567 568 569 570 474 473 472 471 495 494 524 525 526 523 522 521 520 517 514 515 516 506 307 304 303 301 302 508 507 509 510 511 513 512 527 528 529 490 491 492 493 486 487 535 534 488 489 530 531 532 533 231 230 229 228 227 189 190 192 191 226 225 232 233 234 235 236 237 240 239 238 246 247 245 244 243 242 241 300 257 256 248 249 250 251 252 254 253 255 261 260 259 258 262 263 264 265 266 298 299 306 305 318 317 319 320 321 297 296 295 294 267 271 272 269 268 270 293 291 292 273 274 275 290 289 288 276 277 278 279 282 281 280 287 286 285 284 283 334 335 336 337 338 339 333 332 331 330 340 341 343 344 345 346 364 363 362 347 348 349 350 351 415 416 414 413 417 419 420 421 423 422 418 410 411 412 356 355 353 352 354 357 358 359 361 360 401 402 403 400 404 405 406 407 399 397 398 370 369 368 367 365 342 366 329 328 327 326 325 324 323 322 373 372 371 396 395 394 393 391 392 390 389 388 387 408 409 384 383 385 386 382 425 424 426 427 428 429 431 430 432 433 434 435 436 437 438 454 439 443 444 445 381 380 379 378 377 376 375 374 315 314 316 313 312 311 310 309 308 505 504 503 502 451 450 449 448 447 446 442 441 440 453 452 499 500 501 498 519 518 497 496 470 469 468 467 466 465 464 463 462 461 455 456 457 458 459 460 571 572 573 0 1 2 3 4 5 6 7 8 9 10 11 17 18 19 20 16 15 14 13 12 23 22 21 24 25 26 27 28 29 31 30 32 33 34 35 36 37 38 40 41 39 42 44 43 49 48 47 46 45 555 91 92 93 90 87 88 78 62 79 80 81 86 85 84 51 50 52 54 53 55 56 83 82 57 58 59 60 61 63 64 76 75 73 74 77 89 94 554 553 556 557 558 559 560 561 550 551 552 101 102 100 99 98 97 96 95 118 119 120